38991 38281 
39887 37184 
40499 36214 
40958 34495 
41067 33711 
38570 38565 
38464 38707 
38541 38575 
38820 38479 
38601 38504 
39539 37753 
40467 36273 
40734 35404 
40773 35283 
40805 35224 
38510 38636 
38884 38351 
39181 38099 
37657 39349 
39724 37622 
39142 38145 
38777 38498 
39313 37947 
39212 38038 
39111 38206 
38845 38397 
39861 37419 
39282 38008 
40261 36497 
40326 36435 
39994 37033 
40291 36484 
40634 35851 
40249 36574 
40232 36597 
40518 36027 
40401 36381 
40407 36308 
40846 35168 
40711 35724 
40996 33891 
39830 37480 
39567 37730 
39496 37772 
38948 38300 
40125 36922 
39793 37520 
39912 37102 
40272 36495 
39966 37055 
40135 36787 
40226 36670 
40057 37023 
40062 36932 
40258 36536 
40339 36409 
40636 35745 
40973 34211 
40203 36686 
39977 37053 
40195 36748 
38293 38905 
38473 38676 
38302 38874 
38533 38605 
38362 38803 
38874 38387 
40152 36767 
